Route #1: 0 52 88 9 30 27 105 112 64 26 34 72 102 69 38 58 113 51 99 32 13 0
Route #2: 0 63 110 50 29 100 18 3 87 108 104 0
Route #3: 0 89 60 6 5 25 0
Route #4: 0 111 74 90 71 55 24 2 41 66 106 59 107 0
Route #5: 0 46 85 98 76 97 103 70 36 31 11 45 91 16 0
Route #6: 0 7 77 23 22 86 73 17 93 109 47 79 49 35 92 62 28 82 21 0
Route #7: 0 15 19 65 56 33 61 1 39 67 40 43 14 84 75 44 57 0
Route #8: 0 53 78 83 114 54 94 20 101 4 95 42 0
Route #9: 0 8 68 37 80 81 12 96 48 0
Route #10: 0 10 0
Cost 23555:
